NAME          wiki1

* https://en.wikipedia.org/wiki/Simplex_algorithm

*   Maximum: 2
*   Minimum: 0

ROWS
 L  0
 L  1
 N  c
COLUMNS
    x         0         3.             1         2.
    x         c         -2.
    Y         0         2.             1         5.
    Y         c         -3.
    z         0         1.             1         3.
    z         c         -4.
RHS
    b         0         10.
    b         1         15.
ENDATA
